62
125
87	1
86	7
85	5
84	5
83	4
82	3
81	7
80	1
79	3
78	4
77	1
76	5
75	1
74	4
73	3
72	3
71	2
70	3
69	3
68	1
67	5
66	1
65	3
64	2
63	1
62	1
61	4
60	3
59	9
58	4
57	3
56	6
55	3
54	3
53	3
52	5
51	3
50	5
49	4
48	2
47	2
46	3
45	2
44	1
43	2
42	3
41	5
40	3
39	5
38	4
37	2
36	1
35	5
34	3
33	2
32	2
31	2
30	7
29	1
28	3
27	5
25	1
